16 78 35 72 5 10 32 63 41 43 28 92 8 11 98 82 45 37 39 55 85 88 46 17 89 34 71 96 31 65 12 15 13 33 1 84 9 26 4 97 38 87 18 61 3 51 29 53 36 30 64 48 68 27 59 47 86 60 19 56 93 24 69 66 67 2 81 7 40 57 94 49 6 90 50 77 58 100 83 80 99 23 14 95 54 22 70 75 44 62 79 21 91 20 74 52 73 76 42 25 